200 200
25 105
57 24
27 18
13 25
20 15
58 20
14 10
6 28
17 57
41 82
14 59
13 25
27 18
46 34
32 81
25 102
77 25
8 15
25 18
64 13
7 19
14 74
58 11
6 6
13 5
4 9
4 3
29 6
57 21
105 22
10 45
39 74
6 31
26 21
13 10
13 29
19 19
46 24
51 52
54 23
44 8
11 11
9 9
7 2
2 7
36 21
8 8
18 5
28 13
